(declare-sort $$unsorted 0)
(declare-fun tptp.op ($$unsorted $$unsorted) $$unsorted)
(assert (forall ((X0 $$unsorted) (X1 $$unsorted) (X2 $$unsorted)) (= X0 (tptp.op (tptp.op X1 X1) (tptp.op (tptp.op X2 X0) X0)))))
(assert (not (forall ((X0 $$unsorted) (X1 $$unsorted) (X2 $$unsorted)) (= (tptp.op (tptp.op X0 X0) X1) (tptp.op (tptp.op X2 X1) X1)))))
(set-info :filename Equation1738_implies_Equation4619)
(check-sat-assuming ( true ))
